qbf_easy_train/easy_42_SAT.qdimacs
p cnf 19 43
a 16 4 0
e 1 2 3 5 6 7 8 9 10 11 12 13 14 15 17 18 19 0
-1 2 -3 0
1 -2 -3 0
-1 -2 3 0
1 2 3 0
-6 4 0
-6 5 0
-4 -5 6 0
-7 -8 -9 0
7 8 -9 0
-7 8 9 0
7 -8 9 0
-10 -4 -11 0
10 4 -11 0
-10 4 11 0
10 -4 11 0
12 -2 -13 0
-12 2 -13 0
12 2 13 0
-12 -2 13 0
14 -11 0
14 13 0
11 -13 -14 0
-15 -9 0
-15 -14 0
9 14 15 0
5 -4 -16 0
-5 4 -16 0
5 4 16 0
-5 -4 16 0
-17 -15 0
-17 -16 0
15 16 17 0
-18 6 0
-18 17 0
-6 -17 18 0
19 3 0
19 -18 0
-3 18 -19 0
-4 18 15 -12 16 -17 0
11 -15 13 -9 0
-7 -8 -16 -2 -19 0
6 -13 4 0
19 0
