sat_easy_train/easy_42_SAT.dimacs
p cnf 91 292
-4 -5 -6 0
4 5 -6 0
-4 5 6 0
4 -5 6 0
7 -3 0
7 -6 0
3 6 -7 0
-8 2 0
-8 7 0
-2 -7 8 0
1 8 -9 0
-1 -8 -9 0
1 -8 9 0
-1 8 9 0
-10 -2 -11 0
10 2 -11 0
-10 2 11 0
10 -2 11 0
-14 -13 0
-14 -13 0
13 14 0
-15 -12 0
-15 -14 0
12 14 15 0
17 -15 0
17 16 0
15 -16 -17 0
18 11 0
18 17 0
-11 -17 -18 0
-21 -19 0
-21 20 0
19 -20 21 0
18 -21 -22 0
-18 21 -22 0
18 21 22 0
-18 -21 22 0
-23 9 0
-23 22 0
-9 -22 23 0
25 24 0
25 -17 0
-24 17 -25 0
-23 25 -26 0
23 -25 -26 0
-23 -25 26 0
23 25 26 0
-27 20 0
-27 2 0
-20 -2 27 0
-29 20 0
-29 -28 0
-20 28 29 0
27 -29 -30 0
-27 29 -30 0
27 29 30 0
-27 -29 30 0
-32 31 0
-32 -6 0
-31 6 32 0
33 32 0
33 14 0
-32 -14 -33 0
-33 34 0
33 34 0
35 -30 0
35 34 0
30 -34 -35 0
26 -35 -36 0
-26 35 -36 0
26 35 36 0
-26 -35 36 0
27 37 -38 0
-27 -37 -38 0
27 -37 38 0
-27 37 38 0
39 34 -40 0
-39 -34 -40 0
39 -34 40 0
-39 34 40 0
41 -11 0
41 -39 0
11 39 -41 0
-4 -41 -42 0
4 41 -42 0
-4 41 42 0
4 -41 42 0
42 -3 -43 0
-42 3 -43 0
42 3 43 0
-42 -3 43 0
40 -43 -44 0
-40 43 -44 0
40 43 44 0
-40 -43 44 0
45 -30 0
45 -31 0
30 31 -45 0
46 45 0
46 10 0
-45 -10 -46 0
-47 12 0
-47 -28 0
-12 28 47 0
-48 -47 0
-48 -33 0
47 33 48 0
-49 29 0
-49 31 0
-29 -31 49 0
-50 -48 0
-50 49 0
48 -49 50 0
46 50 -51 0
-46 -50 -51 0
46 -50 51 0
-46 50 51 0
-51 -47 -52 0
51 47 -52 0
-51 47 52 0
51 -47 52 0
5 30 -53 0
-5 -30 -53 0
5 -30 53 0
-5 30 53 0
-31 15 -54 0
31 -15 -54 0
-31 -15 54 0
31 15 54 0
-55 53 0
-55 -54 0
-53 54 55 0
21 -55 -56 0
-21 55 -56 0
21 55 56 0
-21 -55 56 0
57 -17 0
57 56 0
17 -56 -57 0
-58 52 0
-58 -57 0
-52 57 58 0
59 47 0
59 -50 0
-47 50 -59 0
20 -4 -60 0
-20 4 -60 0
20 4 60 0
-20 -4 60 0
-61 10 0
-61 60 0
-10 -60 61 0
-61 -62 0
61 -62 0
63 -59 0
63 -62 0
59 62 -63 0
-64 58 0
-64 -63 0
-58 63 64 0
65 -50 0
65 11 0
50 -11 -65 0
-64 65 -66 0
64 -65 -66 0
-64 -65 66 0
64 65 66 0
44 66 -67 0
-44 -66 -67 0
44 -66 67 0
-44 66 67 0
68 13 0
68 24 0
-13 -24 -68 0
20 -5 -69 0
-20 5 -69 0
20 5 69 0
-20 -5 69 0
69 30 -70 0
-69 -30 -70 0
69 -30 70 0
-69 30 70 0
-71 68 0
-71 -70 0
-68 70 71 0
-72 -29 0
-72 7 0
29 -7 72 0
-73 32 0
-73 72 0
-32 -72 73 0
-71 -73 -74 0
71 73 -74 0
-71 73 74 0
71 -73 74 0
-75 -3 0
-75 -28 0
3 28 75 0
76 -15 0
76 13 0
15 -13 -76 0
77 75 0
77 -76 0
-75 76 -77 0
28 -69 -78 0
-28 69 -78 0
28 69 78 0
-28 -69 78 0
78 -24 -79 0
-78 24 -79 0
78 24 79 0
-78 -24 79 0
80 77 0
80 -79 0
-77 79 -80 0
81 -75 0
81 -14 0
75 14 -81 0
80 -81 -82 0
-80 81 -82 0
80 81 82 0
-80 -81 82 0
-10 -34 -83 0
10 34 -83 0
-10 34 83 0
10 -34 83 0
84 -4 0
84 -10 0
4 10 -84 0
-4 -84 -85 0
4 84 -85 0
-4 84 85 0
4 -84 85 0
-86 83 0
-86 85 0
-83 -85 86 0
-82 -86 -87 0
82 86 -87 0
-82 86 87 0
82 -86 87 0
88 74 0
88 87 0
-74 -87 -88 0
89 -67 0
89 88 0
67 -88 -89 0
90 38 0
90 -89 0
-38 89 -90 0
36 -90 -91 0
-36 90 -91 0
36 90 91 0
-36 -90 91 0
35 34 73 0
78 77 25 -29 0
9 -48 -28 8 89 0
-12 -72 5 -82 1 0
-56 29 -33 -27 -91 0
-65 -49 72 85 -37 0
-6 -79 54 0
-70 -65 -11 -24 81 42 0
-34 -67 76 2 37 0
54 -55 -12 -3 -52 0
-56 -50 39 69 0
-58 87 26 -39 0
77 -41 -38 -79 0
20 36 -78 62 27 21 0
-60 69 -45 0
-20 69 88 26 45 -12 0
-29 -41 0
65 -49 12 77 89 -86 0
86 -62 55 -76 -42 18 0
-40 -44 0
-19 91 26 0
16 3 9 0
9 -80 -29 -90 0
53 -41 62 -67 -34 0
63 -54 52 65 32 0
-26 -5 -39 -1 -67 77 0
61 78 49 0
3 -62 6 40 5 0
77 -47 86 0
-2 77 0
-1 -47 -36 32 59 -33 0
-55 -47 0
43 86 39 21 0
-38 21 42 87 -74 0
-80 36 90 0
38 -29 23 6 0
46 89 -21 0
-79 35 -60 -61 -18 0
91 0
